c preprocessed version of pr107.tsp, 93 vertices, 255 edges
p td 93 255
1 0
0 2
0 7
0 8
77 0
1 2
1 3
1 4
3 2
7 2
2 6
2 5
3 4
3 5
4 5
4 13
6 5
5 11
5 12
5 13
7 6
6 11
6 10
6 8
6 9
7 8
9 8
8 75
8 74
77 8
10 9
15 9
22 9
9 74
9 73
9 72
10 11
10 15
11 12
11 15
11 14
12 13
12 14
13 14
13 18
14 15
14 16
14 18
14 17
15 16
15 21
15 22
17 16
21 16
16 19
16 20
17 18
17 19
18 19
18 27
19 20
19 25
19 26
19 27
21 20
20 25
20 24
20 22
20 23
21 22
23 22
22 72
22 71
22 70
24 23
29 23
36 23
23 69
23 70
23 68
24 25
24 29
26 25
25 28
25 29
26 27
26 28
27 28
27 32
28 29
28 30
28 31
28 32
29 30
29 35
29 36
31 30
35 30
30 33
30 34
31 32
31 33
32 33
32 41
33 34
33 39
33 40
33 41
35 34
34 39
34 38
34 36
34 37
35 36
37 36
36 67
36 68
36 66
38 37
43 37
50 37
37 65
37 66
37 64
38 39
38 43
40 39
39 42
39 43
40 41
40 42
41 42
41 46
42 43
42 44
42 45
42 46
43 44
43 49
43 50
45 44
49 44
44 48
44 47
45 46
45 47
46 47
55 46
47 48
47 53
47 54
55 47
49 48
48 53
48 52
48 50
48 51
49 50
51 50
50 63
50 64
50 62
52 51
51 61
51 62
60 51
57 51
59 51
52 53
57 52
54 53
56 53
57 53
55 54
56 54
55 56
58 55
57 56
58 56
57 58
57 59
59 58
59 60
89 59
60 61
88 60
89 60
62 61
88 61
63 62
88 62
64 63
65 64
87 64
66 65
87 65
67 66
85 66
87 66
86 66
68 67
85 67
69 68
83 68
85 68
84 68
70 69
83 69
71 70
81 70
83 70
82 70
72 71
81 71
73 72
79 72
81 72
80 72
74 73
79 73
75 74
76 74
79 74
78 74
76 75
77 75
76 77
78 76
78 77
79 78
80 78
80 79
81 80
82 80
82 81
83 82
84 82
84 83
85 84
86 84
86 85
87 86
88 89
90 92
90 62
90 63
90 64
90 91
91 92
91 62
91 88
91 89
92 64
92 87
92 86
